# Objective value = 78
WA1n 0
WA1p 0
WA2n 0
WA2p 1
WB1n 0
WB1p 0
WB2n 0
WB2p 1
WC1n 0
WC1p 1
WD1n 0
WD1p 1
WD2n 0
WD2p 1
WE1n 0
WE1p 1
WE2n 0
WE2p 1
WF1n 4
WF1p 0
WG1n 0
WG1p 5
WG2n 0
WG2p 1
WH1n 0
WH1p 5
WH2n 0
WH2p 1
WI1n 15
WI1p 0
WJ1n 15
WJ1p 0
WT1n 19
WT1p 0
100 120
a 1
b 1
c 1
d 1
e 1
f 1
g 1
h 1
i 1
j 1
k 1
l 1
m 1
n 1
o 1
p 1
q 1
